c read Graph
c width = 67
c time = 71 ms
c width = 5
c time = 98 ms
c width = 5
c time = 4898 ms
s td 76 6 80
b 1 1 2 17
b 2 2 3 17 18
b 3 14 15 31 32
b 4 3 17 18 33
b 5 14 31 32 48
b 6 33 49 50 66
b 7 48 63 64 79
b 8 33 50 66 67
b 9 48 63 78 79
b 10 3 4 5 20
b 11 5 6 7 22
b 12 7 8 9 24
b 13 9 10 11 26
b 14 11 12 13 28
b 15 3 18 19 33 34
b 16 14 30 31 47 48
b 17 13 14 30 47 48
b 18 33 34 50 51 67
b 19 47 48 62 63 78
b 20 33 34 51 67 68
b 21 53 68 69 70
b 22 55 70 71 72
b 23 57 72 73 74
b 24 59 74 75 76
b 25 61 76 77 78
b 26 5 20 21 22 37
b 27 7 22 23 24 39
b 28 9 24 25 26 41
b 29 11 26 27 28 43
b 30 13 28 29 30 45
b 31 30 45 46 47 62
b 32 13 30 47 48 62 78
b 33 13 30 45 47 62 78
b 34 13 28 30 45 62 78
b 35 13 28 45 61 62 78
b 36 11 13 28 45 61 78
b 37 11 28 44 45 61 78
b 38 44 59 60 61 76
b 39 11 28 44 61 76 78
b 40 11 28 44 59 61 76
b 41 11 28 43 44 59 76
b 42 11 26 28 43 59 76
b 43 9 11 26 43 59 76
b 44 9 26 42 43 59 76
b 45 42 57 58 59 74
b 46 9 26 42 59 74 76
b 47 9 26 42 57 59 74
b 48 9 26 41 42 57 74
b 49 9 24 26 41 57 74
b 50 7 9 24 41 57 74
b 51 7 24 40 41 57 74
b 52 40 55 56 57 72
b 53 7 24 40 57 72 74
b 54 7 24 40 55 57 72
b 55 7 24 39 40 55 72
b 56 7 22 24 39 55 72
b 57 5 7 22 39 55 72
b 58 5 22 38 39 55 72
b 59 38 53 54 55 70
b 60 5 22 38 55 70 72
b 61 5 22 38 53 55 70
b 62 5 22 37 38 53 70
b 63 5 20 22 37 53 70
b 64 3 5 20 37 53 70
b 65 3 20 36 37 53 70
b 66 3 19 20 36 53 70
b 67 19 34 35 36 51
b 68 36 51 52 53 68
b 69 3 19 36 53 68 70
b 70 3 19 33 34 51 68
b 71 3 19 34 36 51 68
b 72 3 19 36 51 53 68
b 73 36 51 53 68
b 74 64 79 80
b 75 49 65 66
b 76 15 16 32
1 2
2 4
3 76
3 5
4 15
5 16
6 75
6 8
7 74
7 9
8 18
9 19
10 64
11 57
12 50
13 43
14 36
15 70
16 17
17 32
18 20
19 32
20 70
21 69
22 60
23 53
24 46
25 39
26 63
27 56
28 49
29 42
30 34
31 33
32 33
33 34
34 35
35 36
36 37
37 39
38 40
39 40
40 41
41 42
42 43
43 44
44 46
45 47
46 47
47 48
48 49
49 50
50 51
51 53
52 54
53 54
54 55
55 56
56 57
57 58
58 60
59 61
60 61
61 62
62 63
63 64
64 65
65 66
66 69
67 71
68 73
69 72
70 71
71 72
72 73
